Maximize
  - 39 x0 - 45 x1 + 0 x2 + 0 x3 - 5 x4 + 0 x5 - 45 x6 - 34 x7 - 18 x8
   + 20 x9 + 0 x10 + 27 x11 + 15 x12 + 0 x13 + 33 x14 - 33 x15 + 26 x16
   - 8 x17 - 49 x18 - 35 x19 + 32 x20 + 0 x21 + 23 x22 + 47 x23 - 25 x24
   - 40 x25 - 33 x26 + 25 x27 - 47 x28 + 0 x29 + [ 15 x0 ^2 - 60 x0 * x1
   - 74 x0 * x3 + 34 x0 * x5 - 14 x0 * x6 - 88 x0 * x7 - 42 x0 * x8
   + 46 x0 * x9 + 78 x0 * x10 - 32 x0 * x11 + 14 x0 * x12 + 42 x0 * x13
   + 80 x0 * x16 + 6 x0 * x18 - 34 x0 * x19 - 36 x0 * x22 - 74 x0 * x23
   + 44 x0 * x26 - 44 x0 * x27 - 18 x0 * x28 - 12 x0 * x29 + 13 x1 ^2
   + 4 x1 * x3 - 4 x1 * x4 - 44 x1 * x5 - 10 x1 * x11 + 94 x1 * x12
   + 26 x1 * x14 - 26 x1 * x15 + 74 x1 * x16 - 38 x1 * x17 - 88 x1 * x18
   - 38 x1 * x19 + 70 x1 * x20 - 42 x1 * x21 - 24 x1 * x22 + 72 x1 * x23
   - 82 x1 * x24 + 28 x1 * x25 - 24 x1 * x28 - 84 x1 * x29 + 2 x2 * x3
   - 30 x2 * x4 - 46 x2 * x5 - 64 x2 * x6 - 84 x2 * x8 + 84 x2 * x9
   + 24 x2 * x10 - 28 x2 * x11 + 62 x2 * x14 - 74 x2 * x15 - 20 x2 * x16
   - 92 x2 * x19 - 48 x2 * x20 - 84 x2 * x23 - 46 x2 * x24 + 14 x2 * x27
   - 92 x2 * x29 - 29 x3 ^2 - 56 x3 * x4 - 6 x3 * x6 - 6 x3 * x7
   - 54 x3 * x9 - 24 x3 * x12 - 70 x3 * x14 + 70 x3 * x15 - 16 x3 * x18
   + 30 x3 * x19 + 92 x3 * x20 - 94 x3 * x21 + 56 x3 * x23 + 94 x3 * x25
   + 52 x3 * x27 + 78 x3 * x28 - 34 x3 * x29 - 29 x4 ^2 - 64 x4 * x5
   - 20 x4 * x6 + 4 x4 * x8 - 52 x4 * x10 + 30 x4 * x12 + 90 x4 * x13
   + 14 x4 * x18 - 16 x4 * x19 - 32 x4 * x21 - 58 x4 * x22 + 84 x4 * x23
   + 46 x4 * x24 + 70 x4 * x25 + 58 x4 * x27 + 28 x4 * x29 - 18 x5 ^2
   + 54 x5 * x6 - 96 x5 * x7 + 92 x5 * x9 + 86 x5 * x11 + 46 x5 * x12
   + 12 x5 * x13 + 84 x5 * x17 + 82 x5 * x18 - 84 x5 * x20 + 88 x5 * x24
   - 88 x5 * x25 + 62 x5 * x26 - 38 x5 * x27 - 68 x5 * x29 - 25 x6 ^2
   - 10 x6 * x7 + 82 x6 * x11 + 78 x6 * x12 + 66 x6 * x13 - 94 x6 * x14
   - 64 x6 * x16 + 14 x6 * x17 + 20 x6 * x19 - 32 x6 * x21 - 76 x6 * x22
   - 72 x6 * x23 + 24 x6 * x24 + 82 x6 * x25 + 68 x6 * x28 + 58 x6 * x29
   - 11 x7 ^2 - 34 x7 * x8 + 76 x7 * x10 - 16 x7 * x11 + 10 x7 * x12
   + 16 x7 * x13 - 78 x7 * x14 - 10 x7 * x16 - 86 x7 * x17 + 28 x7 * x18
   + 94 x7 * x19 - 60 x7 * x20 - 8 x7 * x21 + 70 x7 * x22 + 62 x7 * x23
   - 72 x7 * x24 + 82 x7 * x25 + 92 x7 * x27 + 50 x7 * x29 - 48 x8 ^2
   - 20 x8 * x11 - 90 x8 * x12 - 76 x8 * x13 - 56 x8 * x15 - 82 x8 * x16
   - 50 x8 * x17 + 16 x8 * x18 + 76 x8 * x19 - 36 x8 * x24 + 50 x8 * x25
   + 94 x8 * x26 - 76 x8 * x27 + 26 x8 * x28 - 13 x9 ^2 - 56 x9 * x13
   + 64 x9 * x14 + 92 x9 * x16 + 72 x9 * x17 + 60 x9 * x18 - 72 x9 * x23
   + 82 x9 * x24 - 22 x9 * x25 + 54 x9 * x28 - 90 x9 * x29 + 49 x10 ^2
   + 70 x10 * x13 + 40 x10 * x16 + 42 x10 * x18 - 60 x10 * x19
   + 84 x10 * x20 + 60 x10 * x21 - 26 x10 * x22 - 92 x10 * x23
   + 8 x10 * x24 - 74 x10 * x25 + 16 x11 ^2 + 40 x11 * x12 - 32 x11 * x14
   - 50 x11 * x15 + 2 x11 * x16 + 2 x11 * x17 + 50 x11 * x18 - 72 x11 * x19
   - 90 x11 * x20 - 50 x11 * x21 + 76 x11 * x22 + 30 x11 * x26
   - 68 x11 * x29 - 22 x12 ^2 - 36 x12 * x13 - 10 x12 * x14 + 62 x12 * x15
   + 96 x12 * x17 + 14 x12 * x18 - 26 x12 * x19 - 18 x12 * x21
   - 2 x12 * x22 - 4 x12 * x23 + 76 x12 * x24 - 8 x12 * x25 - 94 x12 * x26
   + 72 x12 * x27 - 82 x12 * x28 - 20 x12 * x29 - 47 x13 ^2 - 40 x13 * x14
   - 24 x13 * x15 + 50 x13 * x16 + 6 x13 * x17 + 54 x13 * x19
   + 42 x13 * x21 + 64 x13 * x23 - 88 x13 * x24 + 46 x13 * x25
   + 60 x13 * x28 + 6 x13 * x29 - 36 x14 ^2 + 80 x14 * x16 - 94 x14 * x17
   - 10 x14 * x18 + 80 x14 * x19 - 84 x14 * x20 - 64 x14 * x24
   - 56 x14 * x25 + 80 x14 * x26 + 2 x14 * x27 + 88 x14 * x29
   + 48 x15 * x16 + 58 x15 * x17 - 50 x15 * x19 - 82 x15 * x20
   - 32 x15 * x21 - 8 x15 * x22 - 40 x15 * x23 + 10 x15 * x24
   + 52 x15 * x25 - 44 x15 * x26 + 58 x15 * x27 + 76 x15 * x28
   + 74 x15 * x29 - 7 x16 ^2 + 6 x16 * x19 - 6 x16 * x21 - 98 x16 * x22
   + 90 x16 * x23 + 86 x16 * x25 - 2 x16 * x26 - 22 x16 * x27
   + 94 x17 * x18 + 32 x17 * x19 + 42 x17 * x21 + 14 x17 * x22
   - 14 x17 * x24 + 12 x17 * x25 - 16 x17 * x26 + 48 x17 * x28 - 35 x18 ^2
   + 56 x18 * x19 + 72 x18 * x20 + 70 x18 * x21 - 68 x18 * x22
   + 32 x18 * x23 + 2 x18 * x24 + 50 x18 * x25 - 36 x18 * x26
   + 50 x18 * x27 + 10 x18 * x28 - 8 x18 * x29 - 34 x19 ^2 + 62 x19 * x20
   - 84 x19 * x21 - 46 x19 * x22 + 10 x19 * x23 + 34 x19 * x24
   + 10 x19 * x28 + 56 x19 * x29 - 35 x20 ^2 + 26 x20 * x22 - 88 x20 * x25
   + 62 x20 * x26 + 62 x20 * x27 + 72 x20 * x28 - 48 x20 * x29 - 13 x21 ^2
   + 48 x21 * x22 - 18 x21 * x23 + 72 x21 * x24 - 60 x21 * x28
   - 68 x21 * x29 + 31 x22 ^2 - 36 x22 * x23 - 18 x22 * x25 + 70 x22 * x26
   + 32 x22 * x27 - 88 x22 * x28 - 2 x22 * x29 - x23 ^2 + 8 x23 * x24
   + 70 x23 * x26 + 94 x23 * x27 + 88 x24 * x27 + 44 x24 * x28 + 19 x25 ^2
   + 32 x25 * x27 + 96 x25 * x28 + 43 x26 ^2 + 80 x26 * x27 + 70 x27 * x29
   + 11 x28 ^2 - 2 x28 * x29 - 13 x29 ^2 ] / 2 
Subject To
Bounds
 x0 <= 1
 x1 <= 1
 x2 <= 1
 x3 <= 1
 x4 <= 1
 x5 <= 1
 x6 <= 1
 x7 <= 1
 x8 <= 1
 x9 <= 1
 x10 <= 1
 x11 <= 1
 x12 <= 1
 x13 <= 1
 x14 <= 1
 x15 <= 1
 x16 <= 1
 x17 <= 1
 x18 <= 1
 x19 <= 1
 x20 <= 1
 x21 <= 1
 x22 <= 1
 x23 <= 1
 x24 <= 1
 x25 <= 1
 x26 <= 1
 x27 <= 1
 x28 <= 1
 x29 <= 1
End
